&inputpp 
   outdir = './'
   prefix = 'd'
   seedname = 'd'
   spin_component = 'none'
   write_mmn = .true.
   write_amn = .true.
   write_unk = .true.
   write_dmn = .true.
   wan_mode = 'standalone'
/
