num_bands     =  40
num_wann      =  11

dis_win_min   = -8.0
dis_win_max   =  6.0

dis_froz_min  = -7.8
dis_froz_max  =  4.0

num_iter      = 1000
conv_tol      = 1e-6
dis_num_iter  = 300
dis_mix_ratio = 0.5
dis_conv_tol  = 1e-8



begin projections
Mo:d
S:p
end projections


site_symmetry = .true.
write_hr      = .true.
bands_plot    = .true.
wannier_plot  = .true.
write_xyz     = .true.
write_dmn     = .false.
use_ws_distance = .true.


wannier_plot_supercell = 2 2 1


begin unit_cell_cart
 3.1804152595  0.000000000   0.00000
-1.5902076298  2.754319125   0.00000
 0.0000000000  0.000000000  20.00000
end unit_cell_cart

begin atoms_cart
Mo     0.001720428        -0.000261307         3.020250797
S      1.591346502         0.917342544         1.456984282
S      1.592797279         0.918367922         4.581565380
end atoms_cart


begin kpoint_path
  G 0.0       0.0      0.0  M 0.5       0.0      0.0
  M 0.5       0.0      0.0  K 0.666667 -0.333333 0.0
  K 0.666667 -0.333333 0.0  G 0.0       0.0      0.0
end kpoint_path


mp_grid = 15 15 1

begin kpoints
  0.00000000  0.00000000  0.00000000  4.444444e-03
  0.00000000  0.06666667  0.00000000  4.444444e-03
  0.00000000  0.13333333  0.00000000  4.444444e-03
  0.00000000  0.20000000  0.00000000  4.444444e-03
  0.00000000  0.26666667  0.00000000  4.444444e-03
  0.00000000  0.33333333  0.00000000  4.444444e-03
  0.00000000  0.40000000  0.00000000  4.444444e-03
  0.00000000  0.46666667  0.00000000  4.444444e-03
  0.00000000  0.53333333  0.00000000  4.444444e-03
  0.00000000  0.60000000  0.00000000  4.444444e-03
  0.00000000  0.66666667  0.00000000  4.444444e-03
  0.00000000  0.73333333  0.00000000  4.444444e-03
  0.00000000  0.80000000  0.00000000  4.444444e-03
  0.00000000  0.86666667  0.00000000  4.444444e-03
  0.00000000  0.93333333  0.00000000  4.444444e-03
  0.06666667  0.00000000  0.00000000  4.444444e-03
  0.06666667  0.06666667  0.00000000  4.444444e-03
  0.06666667  0.13333333  0.00000000  4.444444e-03
  0.06666667  0.20000000  0.00000000  4.444444e-03
  0.06666667  0.26666667  0.00000000  4.444444e-03
  0.06666667  0.33333333  0.00000000  4.444444e-03
  0.06666667  0.40000000  0.00000000  4.444444e-03
  0.06666667  0.46666667  0.00000000  4.444444e-03
  0.06666667  0.53333333  0.00000000  4.444444e-03
  0.06666667  0.60000000  0.00000000  4.444444e-03
  0.06666667  0.66666667  0.00000000  4.444444e-03
  0.06666667  0.73333333  0.00000000  4.444444e-03
  0.06666667  0.80000000  0.00000000  4.444444e-03
  0.06666667  0.86666667  0.00000000  4.444444e-03
  0.06666667  0.93333333  0.00000000  4.444444e-03
  0.13333333  0.00000000  0.00000000  4.444444e-03
  0.13333333  0.06666667  0.00000000  4.444444e-03
  0.13333333  0.13333333  0.00000000  4.444444e-03
  0.13333333  0.20000000  0.00000000  4.444444e-03
  0.13333333  0.26666667  0.00000000  4.444444e-03
  0.13333333  0.33333333  0.00000000  4.444444e-03
  0.13333333  0.40000000  0.00000000  4.444444e-03
  0.13333333  0.46666667  0.00000000  4.444444e-03
  0.13333333  0.53333333  0.00000000  4.444444e-03
  0.13333333  0.60000000  0.00000000  4.444444e-03
  0.13333333  0.66666667  0.00000000  4.444444e-03
  0.13333333  0.73333333  0.00000000  4.444444e-03
  0.13333333  0.80000000  0.00000000  4.444444e-03
  0.13333333  0.86666667  0.00000000  4.444444e-03
  0.13333333  0.93333333  0.00000000  4.444444e-03
  0.20000000  0.00000000  0.00000000  4.444444e-03
  0.20000000  0.06666667  0.00000000  4.444444e-03
  0.20000000  0.13333333  0.00000000  4.444444e-03
  0.20000000  0.20000000  0.00000000  4.444444e-03
  0.20000000  0.26666667  0.00000000  4.444444e-03
  0.20000000  0.33333333  0.00000000  4.444444e-03
  0.20000000  0.40000000  0.00000000  4.444444e-03
  0.20000000  0.46666667  0.00000000  4.444444e-03
  0.20000000  0.53333333  0.00000000  4.444444e-03
  0.20000000  0.60000000  0.00000000  4.444444e-03
  0.20000000  0.66666667  0.00000000  4.444444e-03
  0.20000000  0.73333333  0.00000000  4.444444e-03
  0.20000000  0.80000000  0.00000000  4.444444e-03
  0.20000000  0.86666667  0.00000000  4.444444e-03
  0.20000000  0.93333333  0.00000000  4.444444e-03
  0.26666667  0.00000000  0.00000000  4.444444e-03
  0.26666667  0.06666667  0.00000000  4.444444e-03
  0.26666667  0.13333333  0.00000000  4.444444e-03
  0.26666667  0.20000000  0.00000000  4.444444e-03
  0.26666667  0.26666667  0.00000000  4.444444e-03
  0.26666667  0.33333333  0.00000000  4.444444e-03
  0.26666667  0.40000000  0.00000000  4.444444e-03
  0.26666667  0.46666667  0.00000000  4.444444e-03
  0.26666667  0.53333333  0.00000000  4.444444e-03
  0.26666667  0.60000000  0.00000000  4.444444e-03
  0.26666667  0.66666667  0.00000000  4.444444e-03
  0.26666667  0.73333333  0.00000000  4.444444e-03
  0.26666667  0.80000000  0.00000000  4.444444e-03
  0.26666667  0.86666667  0.00000000  4.444444e-03
  0.26666667  0.93333333  0.00000000  4.444444e-03
  0.33333333  0.00000000  0.00000000  4.444444e-03
  0.33333333  0.06666667  0.00000000  4.444444e-03
  0.33333333  0.13333333  0.00000000  4.444444e-03
  0.33333333  0.20000000  0.00000000  4.444444e-03
  0.33333333  0.26666667  0.00000000  4.444444e-03
  0.33333333  0.33333333  0.00000000  4.444444e-03
  0.33333333  0.40000000  0.00000000  4.444444e-03
  0.33333333  0.46666667  0.00000000  4.444444e-03
  0.33333333  0.53333333  0.00000000  4.444444e-03
  0.33333333  0.60000000  0.00000000  4.444444e-03
  0.33333333  0.66666667  0.00000000  4.444444e-03
  0.33333333  0.73333333  0.00000000  4.444444e-03
  0.33333333  0.80000000  0.00000000  4.444444e-03
  0.33333333  0.86666667  0.00000000  4.444444e-03
  0.33333333  0.93333333  0.00000000  4.444444e-03
  0.40000000  0.00000000  0.00000000  4.444444e-03
  0.40000000  0.06666667  0.00000000  4.444444e-03
  0.40000000  0.13333333  0.00000000  4.444444e-03
  0.40000000  0.20000000  0.00000000  4.444444e-03
  0.40000000  0.26666667  0.00000000  4.444444e-03
  0.40000000  0.33333333  0.00000000  4.444444e-03
  0.40000000  0.40000000  0.00000000  4.444444e-03
  0.40000000  0.46666667  0.00000000  4.444444e-03
  0.40000000  0.53333333  0.00000000  4.444444e-03
  0.40000000  0.60000000  0.00000000  4.444444e-03
  0.40000000  0.66666667  0.00000000  4.444444e-03
  0.40000000  0.73333333  0.00000000  4.444444e-03
  0.40000000  0.80000000  0.00000000  4.444444e-03
  0.40000000  0.86666667  0.00000000  4.444444e-03
  0.40000000  0.93333333  0.00000000  4.444444e-03
  0.46666667  0.00000000  0.00000000  4.444444e-03
  0.46666667  0.06666667  0.00000000  4.444444e-03
  0.46666667  0.13333333  0.00000000  4.444444e-03
  0.46666667  0.20000000  0.00000000  4.444444e-03
  0.46666667  0.26666667  0.00000000  4.444444e-03
  0.46666667  0.33333333  0.00000000  4.444444e-03
  0.46666667  0.40000000  0.00000000  4.444444e-03
  0.46666667  0.46666667  0.00000000  4.444444e-03
  0.46666667  0.53333333  0.00000000  4.444444e-03
  0.46666667  0.60000000  0.00000000  4.444444e-03
  0.46666667  0.66666667  0.00000000  4.444444e-03
  0.46666667  0.73333333  0.00000000  4.444444e-03
  0.46666667  0.80000000  0.00000000  4.444444e-03
  0.46666667  0.86666667  0.00000000  4.444444e-03
  0.46666667  0.93333333  0.00000000  4.444444e-03
  0.53333333  0.00000000  0.00000000  4.444444e-03
  0.53333333  0.06666667  0.00000000  4.444444e-03
  0.53333333  0.13333333  0.00000000  4.444444e-03
  0.53333333  0.20000000  0.00000000  4.444444e-03
  0.53333333  0.26666667  0.00000000  4.444444e-03
  0.53333333  0.33333333  0.00000000  4.444444e-03
  0.53333333  0.40000000  0.00000000  4.444444e-03
  0.53333333  0.46666667  0.00000000  4.444444e-03
  0.53333333  0.53333333  0.00000000  4.444444e-03
  0.53333333  0.60000000  0.00000000  4.444444e-03
  0.53333333  0.66666667  0.00000000  4.444444e-03
  0.53333333  0.73333333  0.00000000  4.444444e-03
  0.53333333  0.80000000  0.00000000  4.444444e-03
  0.53333333  0.86666667  0.00000000  4.444444e-03
  0.53333333  0.93333333  0.00000000  4.444444e-03
  0.60000000  0.00000000  0.00000000  4.444444e-03
  0.60000000  0.06666667  0.00000000  4.444444e-03
  0.60000000  0.13333333  0.00000000  4.444444e-03
  0.60000000  0.20000000  0.00000000  4.444444e-03
  0.60000000  0.26666667  0.00000000  4.444444e-03
  0.60000000  0.33333333  0.00000000  4.444444e-03
  0.60000000  0.40000000  0.00000000  4.444444e-03
  0.60000000  0.46666667  0.00000000  4.444444e-03
  0.60000000  0.53333333  0.00000000  4.444444e-03
  0.60000000  0.60000000  0.00000000  4.444444e-03
  0.60000000  0.66666667  0.00000000  4.444444e-03
  0.60000000  0.73333333  0.00000000  4.444444e-03
  0.60000000  0.80000000  0.00000000  4.444444e-03
  0.60000000  0.86666667  0.00000000  4.444444e-03
  0.60000000  0.93333333  0.00000000  4.444444e-03
  0.66666667  0.00000000  0.00000000  4.444444e-03
  0.66666667  0.06666667  0.00000000  4.444444e-03
  0.66666667  0.13333333  0.00000000  4.444444e-03
  0.66666667  0.20000000  0.00000000  4.444444e-03
  0.66666667  0.26666667  0.00000000  4.444444e-03
  0.66666667  0.33333333  0.00000000  4.444444e-03
  0.66666667  0.40000000  0.00000000  4.444444e-03
  0.66666667  0.46666667  0.00000000  4.444444e-03
  0.66666667  0.53333333  0.00000000  4.444444e-03
  0.66666667  0.60000000  0.00000000  4.444444e-03
  0.66666667  0.66666667  0.00000000  4.444444e-03
  0.66666667  0.73333333  0.00000000  4.444444e-03
  0.66666667  0.80000000  0.00000000  4.444444e-03
  0.66666667  0.86666667  0.00000000  4.444444e-03
  0.66666667  0.93333333  0.00000000  4.444444e-03
  0.73333333  0.00000000  0.00000000  4.444444e-03
  0.73333333  0.06666667  0.00000000  4.444444e-03
  0.73333333  0.13333333  0.00000000  4.444444e-03
  0.73333333  0.20000000  0.00000000  4.444444e-03
  0.73333333  0.26666667  0.00000000  4.444444e-03
  0.73333333  0.33333333  0.00000000  4.444444e-03
  0.73333333  0.40000000  0.00000000  4.444444e-03
  0.73333333  0.46666667  0.00000000  4.444444e-03
  0.73333333  0.53333333  0.00000000  4.444444e-03
  0.73333333  0.60000000  0.00000000  4.444444e-03
  0.73333333  0.66666667  0.00000000  4.444444e-03
  0.73333333  0.73333333  0.00000000  4.444444e-03
  0.73333333  0.80000000  0.00000000  4.444444e-03
  0.73333333  0.86666667  0.00000000  4.444444e-03
  0.73333333  0.93333333  0.00000000  4.444444e-03
  0.80000000  0.00000000  0.00000000  4.444444e-03
  0.80000000  0.06666667  0.00000000  4.444444e-03
  0.80000000  0.13333333  0.00000000  4.444444e-03
  0.80000000  0.20000000  0.00000000  4.444444e-03
  0.80000000  0.26666667  0.00000000  4.444444e-03
  0.80000000  0.33333333  0.00000000  4.444444e-03
  0.80000000  0.40000000  0.00000000  4.444444e-03
  0.80000000  0.46666667  0.00000000  4.444444e-03
  0.80000000  0.53333333  0.00000000  4.444444e-03
  0.80000000  0.60000000  0.00000000  4.444444e-03
  0.80000000  0.66666667  0.00000000  4.444444e-03
  0.80000000  0.73333333  0.00000000  4.444444e-03
  0.80000000  0.80000000  0.00000000  4.444444e-03
  0.80000000  0.86666667  0.00000000  4.444444e-03
  0.80000000  0.93333333  0.00000000  4.444444e-03
  0.86666667  0.00000000  0.00000000  4.444444e-03
  0.86666667  0.06666667  0.00000000  4.444444e-03
  0.86666667  0.13333333  0.00000000  4.444444e-03
  0.86666667  0.20000000  0.00000000  4.444444e-03
  0.86666667  0.26666667  0.00000000  4.444444e-03
  0.86666667  0.33333333  0.00000000  4.444444e-03
  0.86666667  0.40000000  0.00000000  4.444444e-03
  0.86666667  0.46666667  0.00000000  4.444444e-03
  0.86666667  0.53333333  0.00000000  4.444444e-03
  0.86666667  0.60000000  0.00000000  4.444444e-03
  0.86666667  0.66666667  0.00000000  4.444444e-03
  0.86666667  0.73333333  0.00000000  4.444444e-03
  0.86666667  0.80000000  0.00000000  4.444444e-03
  0.86666667  0.86666667  0.00000000  4.444444e-03
  0.86666667  0.93333333  0.00000000  4.444444e-03
  0.93333333  0.00000000  0.00000000  4.444444e-03
  0.93333333  0.06666667  0.00000000  4.444444e-03
  0.93333333  0.13333333  0.00000000  4.444444e-03
  0.93333333  0.20000000  0.00000000  4.444444e-03
  0.93333333  0.26666667  0.00000000  4.444444e-03
  0.93333333  0.33333333  0.00000000  4.444444e-03
  0.93333333  0.40000000  0.00000000  4.444444e-03
  0.93333333  0.46666667  0.00000000  4.444444e-03
  0.93333333  0.53333333  0.00000000  4.444444e-03
  0.93333333  0.60000000  0.00000000  4.444444e-03
  0.93333333  0.66666667  0.00000000  4.444444e-03
  0.93333333  0.73333333  0.00000000  4.444444e-03
  0.93333333  0.80000000  0.00000000  4.444444e-03
  0.93333333  0.86666667  0.00000000  4.444444e-03
  0.93333333  0.93333333  0.00000000  4.444444e-03
end kpoints
