num_bands = 40
num_wann  = 11

dis_win_min   = -6.0
dis_win_max   = 8.0

dis_froz_min  = -2.0
dis_froz_max  = 3.0

dis_num_iter  = 200
dis_mix_ratio = 0.5


begin projections
Mo:dz2
Mo:dxz
Mo:dyz
Mo:dxy
Mo:dx2-y2
S:px
S:py
S:pz
end projections


site_symmetry = .false.
write_hr = .true.
bands_plot = .true.
wannier_plot = .true.
write_xyz = .true.

wannier_plot_supercell = 1

!exclude_bands=


begin unit_cell_cart
 3.1804152595  0.000000000   0.00000
-1.5902076298  2.754319125   0.00000
 0.0000000000  0.000000000  20.00000
end unit_cell_cart

begin atoms_cart
Mo     0.001720428        -0.000261307         3.020250797
S      1.591346502         0.917342544         1.456984282
S      1.592797279         0.918367922         4.581565380
end atoms_cart

begin kpoint_path
   G  0.00000000  0.00000000  0.00000000    M  0.50000000  0.00000000  0.00000000
   M  0.50000000  0.00000000  0.00000000    K  0.33333333  0.33333333  0.00000000
   K  0.33333333  0.33333333  0.00000000    G  0.00000000  0.00000000  0.00000000
end kpoint_path

mp_grid = 7 7 1

begin kpoints
  0.00000000  0.00000000  0.00000000  2.040816e-02
  0.00000000  0.14285714  0.00000000  2.040816e-02
  0.00000000  0.28571429  0.00000000  2.040816e-02
  0.00000000  0.42857143  0.00000000  2.040816e-02
  0.00000000  0.57142857  0.00000000  2.040816e-02
  0.00000000  0.71428571  0.00000000  2.040816e-02
  0.00000000  0.85714286  0.00000000  2.040816e-02
  0.14285714  0.00000000  0.00000000  2.040816e-02
  0.14285714  0.14285714  0.00000000  2.040816e-02
  0.14285714  0.28571429  0.00000000  2.040816e-02
  0.14285714  0.42857143  0.00000000  2.040816e-02
  0.14285714  0.57142857  0.00000000  2.040816e-02
  0.14285714  0.71428571  0.00000000  2.040816e-02
  0.14285714  0.85714286  0.00000000  2.040816e-02
  0.28571429  0.00000000  0.00000000  2.040816e-02
  0.28571429  0.14285714  0.00000000  2.040816e-02
  0.28571429  0.28571429  0.00000000  2.040816e-02
  0.28571429  0.42857143  0.00000000  2.040816e-02
  0.28571429  0.57142857  0.00000000  2.040816e-02
  0.28571429  0.71428571  0.00000000  2.040816e-02
  0.28571429  0.85714286  0.00000000  2.040816e-02
  0.42857143  0.00000000  0.00000000  2.040816e-02
  0.42857143  0.14285714  0.00000000  2.040816e-02
  0.42857143  0.28571429  0.00000000  2.040816e-02
  0.42857143  0.42857143  0.00000000  2.040816e-02
  0.42857143  0.57142857  0.00000000  2.040816e-02
  0.42857143  0.71428571  0.00000000  2.040816e-02
  0.42857143  0.85714286  0.00000000  2.040816e-02
  0.57142857  0.00000000  0.00000000  2.040816e-02
  0.57142857  0.14285714  0.00000000  2.040816e-02
  0.57142857  0.28571429  0.00000000  2.040816e-02
  0.57142857  0.42857143  0.00000000  2.040816e-02
  0.57142857  0.57142857  0.00000000  2.040816e-02
  0.57142857  0.71428571  0.00000000  2.040816e-02
  0.57142857  0.85714286  0.00000000  2.040816e-02
  0.71428571  0.00000000  0.00000000  2.040816e-02
  0.71428571  0.14285714  0.00000000  2.040816e-02
  0.71428571  0.28571429  0.00000000  2.040816e-02
  0.71428571  0.42857143  0.00000000  2.040816e-02
  0.71428571  0.57142857  0.00000000  2.040816e-02
  0.71428571  0.71428571  0.00000000  2.040816e-02
  0.71428571  0.85714286  0.00000000  2.040816e-02
  0.85714286  0.00000000  0.00000000  2.040816e-02
  0.85714286  0.14285714  0.00000000  2.040816e-02
  0.85714286  0.28571429  0.00000000  2.040816e-02
  0.85714286  0.42857143  0.00000000  2.040816e-02
  0.85714286  0.57142857  0.00000000  2.040816e-02
  0.85714286  0.71428571  0.00000000  2.040816e-02
  0.85714286  0.85714286  0.00000000  2.040816e-02
end kpoints
