
&control
    calculation = 'scf'
    pseudo_dir = './'
    prefix = 'd'
    outdir = './'
    nstep = 100
    wf_collect = .true.
    verbosity = 'high'
/

&system
    ibrav = 4
    a = 3.1804152595
    c = 20
    nat = 3
    ntyp = 2
    ecutwfc = 60
    occupations = 'fixed'
    nbnd = 40
    input_dft = 'pbe'
!    nosym = .true.
    nosym = .true.
    noinv = .true.
!    starting_magnetization(1)=0.01
!    starting_magnetization(2)=0.01
!    noncolin                 = .TRUE.
!    lspinorb                 = .TRUE.
!    tot_charge = 0
    force_symmorphic = .true.
/

&electrons
    diagonalization = 'david'
    diago_thr_init = 1e-6
    mixing_mode = 'plain'
    mixing_beta = 0.7
    conv_thr =  1e-9
    electron_maxstep = 200
    diago_full_acc = .true.
!    startingpot = 'file'
/

ATOMIC_SPECIES
Mo 95.9600   Mo_ONCV_PBE_FR-1.0.upf
S  32.0600   S_ONCV_PBE_FR-1.1.upf

ATOMIC_POSITIONS (angstrom)
Mo     0.001720428        -0.000261307         3.020250797
S      1.591346502         0.917342544         1.456984282
S      1.592797279         0.918367922         4.581565380

K_POINTS crystal
49
  0.00000000  0.00000000  0.00000000  2.040816e-02
  0.00000000  0.14285714  0.00000000  2.040816e-02
  0.00000000  0.28571429  0.00000000  2.040816e-02
  0.00000000  0.42857143  0.00000000  2.040816e-02
  0.00000000  0.57142857  0.00000000  2.040816e-02
  0.00000000  0.71428571  0.00000000  2.040816e-02
  0.00000000  0.85714286  0.00000000  2.040816e-02
  0.14285714  0.00000000  0.00000000  2.040816e-02
  0.14285714  0.14285714  0.00000000  2.040816e-02
  0.14285714  0.28571429  0.00000000  2.040816e-02
  0.14285714  0.42857143  0.00000000  2.040816e-02
  0.14285714  0.57142857  0.00000000  2.040816e-02
  0.14285714  0.71428571  0.00000000  2.040816e-02
  0.14285714  0.85714286  0.00000000  2.040816e-02
  0.28571429  0.00000000  0.00000000  2.040816e-02
  0.28571429  0.14285714  0.00000000  2.040816e-02
  0.28571429  0.28571429  0.00000000  2.040816e-02
  0.28571429  0.42857143  0.00000000  2.040816e-02
  0.28571429  0.57142857  0.00000000  2.040816e-02
  0.28571429  0.71428571  0.00000000  2.040816e-02
  0.28571429  0.85714286  0.00000000  2.040816e-02
  0.42857143  0.00000000  0.00000000  2.040816e-02
  0.42857143  0.14285714  0.00000000  2.040816e-02
  0.42857143  0.28571429  0.00000000  2.040816e-02
  0.42857143  0.42857143  0.00000000  2.040816e-02
  0.42857143  0.57142857  0.00000000  2.040816e-02
  0.42857143  0.71428571  0.00000000  2.040816e-02
  0.42857143  0.85714286  0.00000000  2.040816e-02
  0.57142857  0.00000000  0.00000000  2.040816e-02
  0.57142857  0.14285714  0.00000000  2.040816e-02
  0.57142857  0.28571429  0.00000000  2.040816e-02
  0.57142857  0.42857143  0.00000000  2.040816e-02
  0.57142857  0.57142857  0.00000000  2.040816e-02
  0.57142857  0.71428571  0.00000000  2.040816e-02
  0.57142857  0.85714286  0.00000000  2.040816e-02
  0.71428571  0.00000000  0.00000000  2.040816e-02
  0.71428571  0.14285714  0.00000000  2.040816e-02
  0.71428571  0.28571429  0.00000000  2.040816e-02
  0.71428571  0.42857143  0.00000000  2.040816e-02
  0.71428571  0.57142857  0.00000000  2.040816e-02
  0.71428571  0.71428571  0.00000000  2.040816e-02
  0.71428571  0.85714286  0.00000000  2.040816e-02
  0.85714286  0.00000000  0.00000000  2.040816e-02
  0.85714286  0.14285714  0.00000000  2.040816e-02
  0.85714286  0.28571429  0.00000000  2.040816e-02
  0.85714286  0.42857143  0.00000000  2.040816e-02
  0.85714286  0.57142857  0.00000000  2.040816e-02
  0.85714286  0.71428571  0.00000000  2.040816e-02
  0.85714286  0.85714286  0.00000000  2.040816e-02
