&BANDS
prefix = "d",
outdir = "./",
!filband = "band.dat"
!lsym = .true.
/
