
&control
    calculation = 'scf'
    pseudo_dir = './'
    prefix = 'd'
    outdir = './'
    nstep = 100
    wf_collect = .true.
    verbosity = 'high'
/

&system
    ibrav = 4
    a = 3.1804152595
    c = 20
    nat = 3
    ntyp = 2
    ecutwfc = 60
    occupations = 'fixed'
    nbnd = 40
    input_dft = 'pbe'
    nosym = .true.
    noinv = .true.
!    starting_magnetization(1)=0.01
!    starting_magnetization(2)=0.01
!    noncolin                 = .TRUE.
!    lspinorb                 = .TRUE.
!    tot_charge = 0
!    force_symmorphic = .true.
/

&electrons
    diagonalization = 'david'
    diago_thr_init = 1e-6
    mixing_mode = 'plain'
    mixing_beta = 0.7
    conv_thr =  1e-9
    electron_maxstep = 200
    diago_full_acc = .true.
!    startingpot = 'file'
/

ATOMIC_SPECIES
Mo 95.9600   Mo_ONCV_PBE_FR-1.0.upf
S  32.0600   S_ONCV_PBE_FR-1.1.upf

ATOMIC_POSITIONS (angstrom)
Mo     0.000000000         0.000000000         3.020250797
S      1.591346502         0.917342544         1.456984282
S      1.591346502         0.917342544         4.583517312

K_POINTS crystal
225
  0.00000000  0.00000000  0.00000000  4.444444e-03
  0.00000000  0.06666667  0.00000000  4.444444e-03
  0.00000000  0.13333333  0.00000000  4.444444e-03
  0.00000000  0.20000000  0.00000000  4.444444e-03
  0.00000000  0.26666667  0.00000000  4.444444e-03
  0.00000000  0.33333333  0.00000000  4.444444e-03
  0.00000000  0.40000000  0.00000000  4.444444e-03
  0.00000000  0.46666667  0.00000000  4.444444e-03
  0.00000000  0.53333333  0.00000000  4.444444e-03
  0.00000000  0.60000000  0.00000000  4.444444e-03
  0.00000000  0.66666667  0.00000000  4.444444e-03
  0.00000000  0.73333333  0.00000000  4.444444e-03
  0.00000000  0.80000000  0.00000000  4.444444e-03
  0.00000000  0.86666667  0.00000000  4.444444e-03
  0.00000000  0.93333333  0.00000000  4.444444e-03
  0.06666667  0.00000000  0.00000000  4.444444e-03
  0.06666667  0.06666667  0.00000000  4.444444e-03
  0.06666667  0.13333333  0.00000000  4.444444e-03
  0.06666667  0.20000000  0.00000000  4.444444e-03
  0.06666667  0.26666667  0.00000000  4.444444e-03
  0.06666667  0.33333333  0.00000000  4.444444e-03
  0.06666667  0.40000000  0.00000000  4.444444e-03
  0.06666667  0.46666667  0.00000000  4.444444e-03
  0.06666667  0.53333333  0.00000000  4.444444e-03
  0.06666667  0.60000000  0.00000000  4.444444e-03
  0.06666667  0.66666667  0.00000000  4.444444e-03
  0.06666667  0.73333333  0.00000000  4.444444e-03
  0.06666667  0.80000000  0.00000000  4.444444e-03
  0.06666667  0.86666667  0.00000000  4.444444e-03
  0.06666667  0.93333333  0.00000000  4.444444e-03
  0.13333333  0.00000000  0.00000000  4.444444e-03
  0.13333333  0.06666667  0.00000000  4.444444e-03
  0.13333333  0.13333333  0.00000000  4.444444e-03
  0.13333333  0.20000000  0.00000000  4.444444e-03
  0.13333333  0.26666667  0.00000000  4.444444e-03
  0.13333333  0.33333333  0.00000000  4.444444e-03
  0.13333333  0.40000000  0.00000000  4.444444e-03
  0.13333333  0.46666667  0.00000000  4.444444e-03
  0.13333333  0.53333333  0.00000000  4.444444e-03
  0.13333333  0.60000000  0.00000000  4.444444e-03
  0.13333333  0.66666667  0.00000000  4.444444e-03
  0.13333333  0.73333333  0.00000000  4.444444e-03
  0.13333333  0.80000000  0.00000000  4.444444e-03
  0.13333333  0.86666667  0.00000000  4.444444e-03
  0.13333333  0.93333333  0.00000000  4.444444e-03
  0.20000000  0.00000000  0.00000000  4.444444e-03
  0.20000000  0.06666667  0.00000000  4.444444e-03
  0.20000000  0.13333333  0.00000000  4.444444e-03
  0.20000000  0.20000000  0.00000000  4.444444e-03
  0.20000000  0.26666667  0.00000000  4.444444e-03
  0.20000000  0.33333333  0.00000000  4.444444e-03
  0.20000000  0.40000000  0.00000000  4.444444e-03
  0.20000000  0.46666667  0.00000000  4.444444e-03
  0.20000000  0.53333333  0.00000000  4.444444e-03
  0.20000000  0.60000000  0.00000000  4.444444e-03
  0.20000000  0.66666667  0.00000000  4.444444e-03
  0.20000000  0.73333333  0.00000000  4.444444e-03
  0.20000000  0.80000000  0.00000000  4.444444e-03
  0.20000000  0.86666667  0.00000000  4.444444e-03
  0.20000000  0.93333333  0.00000000  4.444444e-03
  0.26666667  0.00000000  0.00000000  4.444444e-03
  0.26666667  0.06666667  0.00000000  4.444444e-03
  0.26666667  0.13333333  0.00000000  4.444444e-03
  0.26666667  0.20000000  0.00000000  4.444444e-03
  0.26666667  0.26666667  0.00000000  4.444444e-03
  0.26666667  0.33333333  0.00000000  4.444444e-03
  0.26666667  0.40000000  0.00000000  4.444444e-03
  0.26666667  0.46666667  0.00000000  4.444444e-03
  0.26666667  0.53333333  0.00000000  4.444444e-03
  0.26666667  0.60000000  0.00000000  4.444444e-03
  0.26666667  0.66666667  0.00000000  4.444444e-03
  0.26666667  0.73333333  0.00000000  4.444444e-03
  0.26666667  0.80000000  0.00000000  4.444444e-03
  0.26666667  0.86666667  0.00000000  4.444444e-03
  0.26666667  0.93333333  0.00000000  4.444444e-03
  0.33333333  0.00000000  0.00000000  4.444444e-03
  0.33333333  0.06666667  0.00000000  4.444444e-03
  0.33333333  0.13333333  0.00000000  4.444444e-03
  0.33333333  0.20000000  0.00000000  4.444444e-03
  0.33333333  0.26666667  0.00000000  4.444444e-03
  0.33333333  0.33333333  0.00000000  4.444444e-03
  0.33333333  0.40000000  0.00000000  4.444444e-03
  0.33333333  0.46666667  0.00000000  4.444444e-03
  0.33333333  0.53333333  0.00000000  4.444444e-03
  0.33333333  0.60000000  0.00000000  4.444444e-03
  0.33333333  0.66666667  0.00000000  4.444444e-03
  0.33333333  0.73333333  0.00000000  4.444444e-03
  0.33333333  0.80000000  0.00000000  4.444444e-03
  0.33333333  0.86666667  0.00000000  4.444444e-03
  0.33333333  0.93333333  0.00000000  4.444444e-03
  0.40000000  0.00000000  0.00000000  4.444444e-03
  0.40000000  0.06666667  0.00000000  4.444444e-03
  0.40000000  0.13333333  0.00000000  4.444444e-03
  0.40000000  0.20000000  0.00000000  4.444444e-03
  0.40000000  0.26666667  0.00000000  4.444444e-03
  0.40000000  0.33333333  0.00000000  4.444444e-03
  0.40000000  0.40000000  0.00000000  4.444444e-03
  0.40000000  0.46666667  0.00000000  4.444444e-03
  0.40000000  0.53333333  0.00000000  4.444444e-03
  0.40000000  0.60000000  0.00000000  4.444444e-03
  0.40000000  0.66666667  0.00000000  4.444444e-03
  0.40000000  0.73333333  0.00000000  4.444444e-03
  0.40000000  0.80000000  0.00000000  4.444444e-03
  0.40000000  0.86666667  0.00000000  4.444444e-03
  0.40000000  0.93333333  0.00000000  4.444444e-03
  0.46666667  0.00000000  0.00000000  4.444444e-03
  0.46666667  0.06666667  0.00000000  4.444444e-03
  0.46666667  0.13333333  0.00000000  4.444444e-03
  0.46666667  0.20000000  0.00000000  4.444444e-03
  0.46666667  0.26666667  0.00000000  4.444444e-03
  0.46666667  0.33333333  0.00000000  4.444444e-03
  0.46666667  0.40000000  0.00000000  4.444444e-03
  0.46666667  0.46666667  0.00000000  4.444444e-03
  0.46666667  0.53333333  0.00000000  4.444444e-03
  0.46666667  0.60000000  0.00000000  4.444444e-03
  0.46666667  0.66666667  0.00000000  4.444444e-03
  0.46666667  0.73333333  0.00000000  4.444444e-03
  0.46666667  0.80000000  0.00000000  4.444444e-03
  0.46666667  0.86666667  0.00000000  4.444444e-03
  0.46666667  0.93333333  0.00000000  4.444444e-03
  0.53333333  0.00000000  0.00000000  4.444444e-03
  0.53333333  0.06666667  0.00000000  4.444444e-03
  0.53333333  0.13333333  0.00000000  4.444444e-03
  0.53333333  0.20000000  0.00000000  4.444444e-03
  0.53333333  0.26666667  0.00000000  4.444444e-03
  0.53333333  0.33333333  0.00000000  4.444444e-03
  0.53333333  0.40000000  0.00000000  4.444444e-03
  0.53333333  0.46666667  0.00000000  4.444444e-03
  0.53333333  0.53333333  0.00000000  4.444444e-03
  0.53333333  0.60000000  0.00000000  4.444444e-03
  0.53333333  0.66666667  0.00000000  4.444444e-03
  0.53333333  0.73333333  0.00000000  4.444444e-03
  0.53333333  0.80000000  0.00000000  4.444444e-03
  0.53333333  0.86666667  0.00000000  4.444444e-03
  0.53333333  0.93333333  0.00000000  4.444444e-03
  0.60000000  0.00000000  0.00000000  4.444444e-03
  0.60000000  0.06666667  0.00000000  4.444444e-03
  0.60000000  0.13333333  0.00000000  4.444444e-03
  0.60000000  0.20000000  0.00000000  4.444444e-03
  0.60000000  0.26666667  0.00000000  4.444444e-03
  0.60000000  0.33333333  0.00000000  4.444444e-03
  0.60000000  0.40000000  0.00000000  4.444444e-03
  0.60000000  0.46666667  0.00000000  4.444444e-03
  0.60000000  0.53333333  0.00000000  4.444444e-03
  0.60000000  0.60000000  0.00000000  4.444444e-03
  0.60000000  0.66666667  0.00000000  4.444444e-03
  0.60000000  0.73333333  0.00000000  4.444444e-03
  0.60000000  0.80000000  0.00000000  4.444444e-03
  0.60000000  0.86666667  0.00000000  4.444444e-03
  0.60000000  0.93333333  0.00000000  4.444444e-03
  0.66666667  0.00000000  0.00000000  4.444444e-03
  0.66666667  0.06666667  0.00000000  4.444444e-03
  0.66666667  0.13333333  0.00000000  4.444444e-03
  0.66666667  0.20000000  0.00000000  4.444444e-03
  0.66666667  0.26666667  0.00000000  4.444444e-03
  0.66666667  0.33333333  0.00000000  4.444444e-03
  0.66666667  0.40000000  0.00000000  4.444444e-03
  0.66666667  0.46666667  0.00000000  4.444444e-03
  0.66666667  0.53333333  0.00000000  4.444444e-03
  0.66666667  0.60000000  0.00000000  4.444444e-03
  0.66666667  0.66666667  0.00000000  4.444444e-03
  0.66666667  0.73333333  0.00000000  4.444444e-03
  0.66666667  0.80000000  0.00000000  4.444444e-03
  0.66666667  0.86666667  0.00000000  4.444444e-03
  0.66666667  0.93333333  0.00000000  4.444444e-03
  0.73333333  0.00000000  0.00000000  4.444444e-03
  0.73333333  0.06666667  0.00000000  4.444444e-03
  0.73333333  0.13333333  0.00000000  4.444444e-03
  0.73333333  0.20000000  0.00000000  4.444444e-03
  0.73333333  0.26666667  0.00000000  4.444444e-03
  0.73333333  0.33333333  0.00000000  4.444444e-03
  0.73333333  0.40000000  0.00000000  4.444444e-03
  0.73333333  0.46666667  0.00000000  4.444444e-03
  0.73333333  0.53333333  0.00000000  4.444444e-03
  0.73333333  0.60000000  0.00000000  4.444444e-03
  0.73333333  0.66666667  0.00000000  4.444444e-03
  0.73333333  0.73333333  0.00000000  4.444444e-03
  0.73333333  0.80000000  0.00000000  4.444444e-03
  0.73333333  0.86666667  0.00000000  4.444444e-03
  0.73333333  0.93333333  0.00000000  4.444444e-03
  0.80000000  0.00000000  0.00000000  4.444444e-03
  0.80000000  0.06666667  0.00000000  4.444444e-03
  0.80000000  0.13333333  0.00000000  4.444444e-03
  0.80000000  0.20000000  0.00000000  4.444444e-03
  0.80000000  0.26666667  0.00000000  4.444444e-03
  0.80000000  0.33333333  0.00000000  4.444444e-03
  0.80000000  0.40000000  0.00000000  4.444444e-03
  0.80000000  0.46666667  0.00000000  4.444444e-03
  0.80000000  0.53333333  0.00000000  4.444444e-03
  0.80000000  0.60000000  0.00000000  4.444444e-03
  0.80000000  0.66666667  0.00000000  4.444444e-03
  0.80000000  0.73333333  0.00000000  4.444444e-03
  0.80000000  0.80000000  0.00000000  4.444444e-03
  0.80000000  0.86666667  0.00000000  4.444444e-03
  0.80000000  0.93333333  0.00000000  4.444444e-03
  0.86666667  0.00000000  0.00000000  4.444444e-03
  0.86666667  0.06666667  0.00000000  4.444444e-03
  0.86666667  0.13333333  0.00000000  4.444444e-03
  0.86666667  0.20000000  0.00000000  4.444444e-03
  0.86666667  0.26666667  0.00000000  4.444444e-03
  0.86666667  0.33333333  0.00000000  4.444444e-03
  0.86666667  0.40000000  0.00000000  4.444444e-03
  0.86666667  0.46666667  0.00000000  4.444444e-03
  0.86666667  0.53333333  0.00000000  4.444444e-03
  0.86666667  0.60000000  0.00000000  4.444444e-03
  0.86666667  0.66666667  0.00000000  4.444444e-03
  0.86666667  0.73333333  0.00000000  4.444444e-03
  0.86666667  0.80000000  0.00000000  4.444444e-03
  0.86666667  0.86666667  0.00000000  4.444444e-03
  0.86666667  0.93333333  0.00000000  4.444444e-03
  0.93333333  0.00000000  0.00000000  4.444444e-03
  0.93333333  0.06666667  0.00000000  4.444444e-03
  0.93333333  0.13333333  0.00000000  4.444444e-03
  0.93333333  0.20000000  0.00000000  4.444444e-03
  0.93333333  0.26666667  0.00000000  4.444444e-03
  0.93333333  0.33333333  0.00000000  4.444444e-03
  0.93333333  0.40000000  0.00000000  4.444444e-03
  0.93333333  0.46666667  0.00000000  4.444444e-03
  0.93333333  0.53333333  0.00000000  4.444444e-03
  0.93333333  0.60000000  0.00000000  4.444444e-03
  0.93333333  0.66666667  0.00000000  4.444444e-03
  0.93333333  0.73333333  0.00000000  4.444444e-03
  0.93333333  0.80000000  0.00000000  4.444444e-03
  0.93333333  0.86666667  0.00000000  4.444444e-03
  0.93333333  0.93333333  0.00000000  4.444444e-03
